CNF/complete5G1vecol5.cnf
p cnf 150 525
1 2 3 4 5 0
-1 6 0
-2 7 0
-3 8 0
-4 9 0
-5 10 0
-6 -2 0
-7 -3 0
-8 -4 0
-9 -5 0
-6 7 0
-7 8 0
-8 9 0
-9 10 0
10 0
11 12 13 14 15 0
-11 16 0
-12 17 0
-13 18 0
-14 19 0
-15 20 0
-16 -12 0
-17 -13 0
-18 -14 0
-19 -15 0
-16 17 0
-17 18 0
-18 19 0
-19 20 0
20 0
21 22 23 24 25 0
-21 26 0
-22 27 0
-23 28 0
-24 29 0
-25 30 0
-26 -22 0
-27 -23 0
-28 -24 0
-29 -25 0
-26 27 0
-27 28 0
-28 29 0
-29 30 0
30 0
31 32 33 34 35 0
-31 36 0
-32 37 0
-33 38 0
-34 39 0
-35 40 0
-36 -32 0
-37 -33 0
-38 -34 0
-39 -35 0
-36 37 0
-37 38 0
-38 39 0
-39 40 0
40 0
41 42 43 44 45 0
-41 46 0
-42 47 0
-43 48 0
-44 49 0
-45 50 0
-46 -42 0
-47 -43 0
-48 -44 0
-49 -45 0
-46 47 0
-47 48 0
-48 49 0
-49 50 0
50 0
51 52 53 54 55 0
-51 56 0
-52 57 0
-53 58 0
-54 59 0
-55 60 0
-56 -52 0
-57 -53 0
-58 -54 0
-59 -55 0
-56 57 0
-57 58 0
-58 59 0
-59 60 0
60 0
61 62 63 64 65 0
-61 66 0
-62 67 0
-63 68 0
-64 69 0
-65 70 0
-66 -62 0
-67 -63 0
-68 -64 0
-69 -65 0
-66 67 0
-67 68 0
-68 69 0
-69 70 0
70 0
71 72 73 74 75 0
-71 76 0
-72 77 0
-73 78 0
-74 79 0
-75 80 0
-76 -72 0
-77 -73 0
-78 -74 0
-79 -75 0
-76 77 0
-77 78 0
-78 79 0
-79 80 0
80 0
81 82 83 84 85 0
-81 86 0
-82 87 0
-83 88 0
-84 89 0
-85 90 0
-86 -82 0
-87 -83 0
-88 -84 0
-89 -85 0
-86 87 0
-87 88 0
-88 89 0
-89 90 0
90 0
91 92 93 94 95 0
-91 96 0
-92 97 0
-93 98 0
-94 99 0
-95 100 0
-96 -92 0
-97 -93 0
-98 -94 0
-99 -95 0
-96 97 0
-97 98 0
-98 99 0
-99 100 0
100 0
101 102 103 104 105 0
-101 106 0
-102 107 0
-103 108 0
-104 109 0
-105 110 0
-106 -102 0
-107 -103 0
-108 -104 0
-109 -105 0
-106 107 0
-107 108 0
-108 109 0
-109 110 0
110 0
111 112 113 114 115 0
-111 116 0
-112 117 0
-113 118 0
-114 119 0
-115 120 0
-116 -112 0
-117 -113 0
-118 -114 0
-119 -115 0
-116 117 0
-117 118 0
-118 119 0
-119 120 0
120 0
121 122 123 124 125 0
-121 126 0
-122 127 0
-123 128 0
-124 129 0
-125 130 0
-126 -122 0
-127 -123 0
-128 -124 0
-129 -125 0
-126 127 0
-127 128 0
-128 129 0
-129 130 0
130 0
131 132 133 134 135 0
-131 136 0
-132 137 0
-133 138 0
-134 139 0
-135 140 0
-136 -132 0
-137 -133 0
-138 -134 0
-139 -135 0
-136 137 0
-137 138 0
-138 139 0
-139 140 0
140 0
141 142 143 144 145 0
-141 146 0
-142 147 0
-143 148 0
-144 149 0
-145 150 0
-146 -142 0
-147 -143 0
-148 -144 0
-149 -145 0
-146 147 0
-147 148 0
-148 149 0
-149 150 0
150 0
-1 -11 0
-2 -12 0
-3 -13 0
-4 -14 0
-5 -15 0
-1 -21 0
-2 -22 0
-3 -23 0
-4 -24 0
-5 -25 0
-1 -31 0
-2 -32 0
-3 -33 0
-4 -34 0
-5 -35 0
-1 -41 0
-2 -42 0
-3 -43 0
-4 -44 0
-5 -45 0
-11 -21 0
-12 -22 0
-13 -23 0
-14 -24 0
-15 -25 0
-11 -31 0
-12 -32 0
-13 -33 0
-14 -34 0
-15 -35 0
-11 -41 0
-12 -42 0
-13 -43 0
-14 -44 0
-15 -45 0
-21 -31 0
-22 -32 0
-23 -33 0
-24 -34 0
-25 -35 0
-21 -41 0
-22 -42 0
-23 -43 0
-24 -44 0
-25 -45 0
-31 -41 0
-32 -42 0
-33 -43 0
-34 -44 0
-35 -45 0
-1 -51 0
-11 -51 0
-2 -52 0
-12 -52 0
-3 -53 0
-13 -53 0
-4 -54 0
-14 -54 0
-5 -55 0
-15 -55 0
-1 -61 0
-21 -61 0
-2 -62 0
-22 -62 0
-3 -63 0
-23 -63 0
-4 -64 0
-24 -64 0
-5 -65 0
-25 -65 0
-1 -71 0
-31 -71 0
-2 -72 0
-32 -72 0
-3 -73 0
-33 -73 0
-4 -74 0
-34 -74 0
-5 -75 0
-35 -75 0
-1 -81 0
-41 -81 0
-2 -82 0
-42 -82 0
-3 -83 0
-43 -83 0
-4 -84 0
-44 -84 0
-5 -85 0
-45 -85 0
-11 -91 0
-21 -91 0
-12 -92 0
-22 -92 0
-13 -93 0
-23 -93 0
-14 -94 0
-24 -94 0
-15 -95 0
-25 -95 0
-11 -101 0
-31 -101 0
-12 -102 0
-32 -102 0
-13 -103 0
-33 -103 0
-14 -104 0
-34 -104 0
-15 -105 0
-35 -105 0
-11 -111 0
-41 -111 0
-12 -112 0
-42 -112 0
-13 -113 0
-43 -113 0
-14 -114 0
-44 -114 0
-15 -115 0
-45 -115 0
-21 -121 0
-31 -121 0
-22 -122 0
-32 -122 0
-23 -123 0
-33 -123 0
-24 -124 0
-34 -124 0
-25 -125 0
-35 -125 0
-21 -131 0
-41 -131 0
-22 -132 0
-42 -132 0
-23 -133 0
-43 -133 0
-24 -134 0
-44 -134 0
-25 -135 0
-45 -135 0
-31 -141 0
-41 -141 0
-32 -142 0
-42 -142 0
-33 -143 0
-43 -143 0
-34 -144 0
-44 -144 0
-35 -145 0
-45 -145 0
-51 -61 0
-52 -62 0
-53 -63 0
-54 -64 0
-55 -65 0
-51 -71 0
-52 -72 0
-53 -73 0
-54 -74 0
-55 -75 0
-51 -81 0
-52 -82 0
-53 -83 0
-54 -84 0
-55 -85 0
-51 -91 0
-52 -92 0
-53 -93 0
-54 -94 0
-55 -95 0
-51 -101 0
-52 -102 0
-53 -103 0
-54 -104 0
-55 -105 0
-51 -111 0
-52 -112 0
-53 -113 0
-54 -114 0
-55 -115 0
-61 -71 0
-62 -72 0
-63 -73 0
-64 -74 0
-65 -75 0
-61 -81 0
-62 -82 0
-63 -83 0
-64 -84 0
-65 -85 0
-61 -91 0
-62 -92 0
-63 -93 0
-64 -94 0
-65 -95 0
-61 -121 0
-62 -122 0
-63 -123 0
-64 -124 0
-65 -125 0
-61 -131 0
-62 -132 0
-63 -133 0
-64 -134 0
-65 -135 0
-71 -81 0
-72 -82 0
-73 -83 0
-74 -84 0
-75 -85 0
-71 -101 0
-72 -102 0
-73 -103 0
-74 -104 0
-75 -105 0
-71 -121 0
-72 -122 0
-73 -123 0
-74 -124 0
-75 -125 0
-71 -141 0
-72 -142 0
-73 -143 0
-74 -144 0
-75 -145 0
-81 -111 0
-82 -112 0
-83 -113 0
-84 -114 0
-85 -115 0
-81 -131 0
-82 -132 0
-83 -133 0
-84 -134 0
-85 -135 0
-81 -141 0
-82 -142 0
-83 -143 0
-84 -144 0
-85 -145 0
-91 -101 0
-92 -102 0
-93 -103 0
-94 -104 0
-95 -105 0
-91 -111 0
-92 -112 0
-93 -113 0
-94 -114 0
-95 -115 0
-91 -121 0
-92 -122 0
-93 -123 0
-94 -124 0
-95 -125 0
-91 -131 0
-92 -132 0
-93 -133 0
-94 -134 0
-95 -135 0
-101 -111 0
-102 -112 0
-103 -113 0
-104 -114 0
-105 -115 0
-101 -121 0
-102 -122 0
-103 -123 0
-104 -124 0
-105 -125 0
-101 -141 0
-102 -142 0
-103 -143 0
-104 -144 0
-105 -145 0
-111 -131 0
-112 -132 0
-113 -133 0
-114 -134 0
-115 -135 0
-111 -141 0
-112 -142 0
-113 -143 0
-114 -144 0
-115 -145 0
-121 -131 0
-122 -132 0
-123 -133 0
-124 -134 0
-125 -135 0
-121 -141 0
-122 -142 0
-123 -143 0
-124 -144 0
-125 -145 0
-131 -141 0
-132 -142 0
-133 -143 0
-134 -144 0
-135 -145 0
