CNF/complete5G1vecol5.txt
Vertex 0: Color 5
Vertex 1: Color 4
Vertex 2: Color 3
Vertex 3: Color 2
Vertex 4: Color 1
Edge (0, 1): Color 2
Edge (0, 2): Color 4
Edge (0, 3): Color 1
Edge (0, 4): Color 3
Edge (1, 2): Color 1
Edge (1, 3): Color 3
Edge (1, 4): Color 5
Edge (2, 3): Color 5
Edge (2, 4): Color 2
Edge (3, 4): Color 4
